# Objective value = 3.0752646019473491e+02
x[0] 0
x[1] 1
x[2] 0
x[3] 0
x[4] 1
x[5] 1
x[6] 0
x[7] 1
x[8] 1
x[9] 0
x[10] 0
x[11] 0
x[12] 1
x[13] 1
x[14] 0
x[15] 0
x[16] 0
x[17] 1
x[18] 0
x[19] 0
x[20] 1
x[21] 0
x[22] 1
x[23] 0
x[24] 0
x[25] 1
x[26] 0
x[27] 0
x[28] 0
x[29] 1
x[30] 0
x[31] 0
x[32] 0
x[33] 0
x[34] 0
x[35] 1
x[36] 0
x[37] 1
x[38] 1
x[39] 0
x[40] 1
x[41] 0
x[42] 0
x[43] 1
x[44] 0
x[45] 0
x[46] 0
x[47] 0
x[48] 1
x[49] 1
x[50] 1
x[51] 0
x[52] 1
x[53] 1
x[54] 1
x[55] 0
x[56] 1
x[57] 1
x[58] 0
x[59] 1
x[60] 1
x[61] 1
x[62] 0
x[63] 1
x[64] 0
x[65] 0
x[66] 0
x[67] 0
x[68] 1
x[69] 0
x[70] 0
x[71] 1
x[72] 1
x[73] 1
x[74] 0
x[75] 1
x[76] 0
x[77] 0
x[78] 0
x[79] 1
x[80] 1
x[81] 0
x[82] 0
x[83] 0
x[84] 0
x[85] 1
x[86] 1
x[87] 1
x[88] 0
x[89] 1
x[90] 0
x[91] 1
x[92] 0
x[93] 0
x[94] 1
x[95] 1
x[96] 1
x[97] 0
x[98] 1
x[99] 1
x[100] 1
x[101] 0
x[102] 0
x[103] 1
x[104] 0
x[105] 0
x[106] 1
x[107] 1
x[108] 0
x[109] 1
x[110] 0
x[111] 1
x[112] 0
x[113] 1
x[114] 0
x[115] 0
x[116] 1
x[117] 0
x[118] 0
x[119] 0
x[120] 0
x[121] 1
x[122] 0
x[123] 0
x[124] 0
x[125] 1
x[126] 1
x[127] 1
x[128] 1
x[129] 0
x[130] 0
x[131] 0
x[132] 0
x[133] 0
x[134] 1
x[135] 0
x[136] 1
x[137] 1
x[138] 0
x[139] 0
x[140] 0
x[141] 0
x[142] 1
x[143] 1
x[144] 1
x[145] 1
x[146] 0
x[147] 1
x[148] 0
x[149] 0
x[150] 0
x[151] 0
x[152] 0
x[153] 1
x[154] 1
x[155] 1
x[156] 1
x[157] 0
x[158] 1
x[159] 0
x[160] 1
x[161] 1
x[162] 0
x[163] 1
x[164] 0
x[165] 1
x[166] 0
x[167] 0
x[168] 0
x[169] 0
x[170] 0
x[171] 0
x[172] 0
x[173] 0
x[174] 0
x[175] 0
x[176] 1
x[177] 0
x[178] 0
x[179] 0
x[180] 1
x[181] 0
x[182] 0
x[183] 1
x[184] 0
x[185] 1
x[186] 0
x[187] 0
x[188] 1
x[189] 0
x[190] 0
x[191] 0
x[192] 0
x[193] 1
x[194] 1
x[195] 0
x[196] 0
x[197] 1
x[198] 1
x[199] 0
x[200] 1
x[201] 0
x[202] 1
x[203] 0
x[204] 0
x[205] 1
x[206] 0
x[207] 0
x[208] 0
x[209] 0
x[210] 1
x[211] 1
x[212] 1
x[213] 1
x[214] 1
x[215] 0
x[216] 1
x[217] 1
x[218] 0
x[219] 0
x[220] 1
x[221] 0
x[222] 1
x[223] 1
x[224] 0
x[225] 0
x[226] 0
x[227] 1
x[228] 1
x[229] 1
x[230] 1
x[231] 0
x[232] 0
x[233] 0
x[234] 0
x[235] 1
x[236] 1
x[237] 1
x[238] 1
x[239] 1
x[240] 0
x[241] 1
x[242] 1
x[243] 1
x[244] 0
x[245] 0
x[246] 1
x[247] 0
x[248] 1
x[249] 0
x[250] 0
x[251] 0
x[252] 1
x[253] 1
x[254] 1
x[255] 1
x[256] 0
x[257] 1
x[258] 1
x[259] 0
x[260] 1
x[261] 0
x[262] 0
x[263] 1
x[264] 1
x[265] 0
x[266] 0
x[267] 1
x[268] 1
x[269] 0
x[270] 1
x[271] 1
x[272] 1
x[273] 1
x[274] 0
x[275] 1
x[276] 0
x[277] 0
x[278] 1
x[279] 1
x[280] 1
x[281] 1
x[282] 1
x[283] 1
x[284] 0
x[285] 0
x[286] 1
x[287] 1
x[288] 0
x[289] 1
x[290] 0
x[291] 0
x[292] 1
x[293] 0
x[294] 1
x[295] 0
x[296] 0
x[297] 1
x[298] 0
x[299] 0
x[300] 0
x[301] 1
x[302] 0
x[303] 0
x[304] 0
x[305] 1
x[306] 0
x[307] 1
x[308] 1
x[309] 1
x[310] 1
x[311] 1
x[312] 1
x[313] 1
x[314] 0
x[315] 0
x[316] 0
x[317] 0
x[318] 1
x[319] 0
x[320] 0
x[321] 0
x[322] 1
x[323] 1
x[324] 0
x[325] 0
x[326] 0
x[327] 1
x[328] 1
x[329] 1
x[330] 1
x[331] 1
x[332] 1
x[333] 0
x[334] 1
x[335] 0
x[336] 1
x[337] 1
x[338] 1
x[339] 0
x[340] 1
x[341] 1
x[342] 1
x[343] 0
x[344] 0
x[345] 1
x[346] 0
x[347] 0
x[348] 0
x[349] 0
x[350] 0
x[351] 0
x[352] 1
x[353] 0
x[354] 0
x[355] 1
x[356] 0
x[357] 0
x[358] 0
x[359] 1
x[360] 1
x[361] 0
x[362] 0
x[363] 0
x[364] 1
x[365] 0
x[366] 0
x[367] 0
x[368] 0
x[369] 1
x[370] 1
x[371] 0
x[372] 0
x[373] 0
x[374] 1
x[375] 0
x[376] 0
x[377] 0
x[378] 1
x[379] 0
x[380] 0
x[381] 0
x[382] 1
x[383] 0
x[384] 1
x[385] 1
x[386] 0
x[387] 0
x[388] 0
x[389] 0
x[390] 1
x[391] 1
x[392] 0
x[393] 1
x[394] 1
x[395] 1
x[396] 1
x[397] 0
x[398] 1
x[399] 1
x[400] 0
x[401] 1
x[402] 0
x[403] 1
x[404] 1
x[405] 0
x[406] 1
x[407] 0
x[408] 1
x[409] 1
x[410] 1
x[411] 0
x[412] 1
x[413] 1
x[414] 1
x[415] 1
x[416] 1
x[417] 0
x[418] 1
x[419] 0
x[420] 0
x[421] 1
x[422] 0
x[423] 0
x[424] 1
x[425] 0
x[426] 0
x[427] 1
x[428] 0
x[429] 0
x[430] 1
x[431] 0
x[432] 1
x[433] 0
x[434] 1
x[435] 0
x[436] 1
x[437] 0
x[438] 0
x[439] 0
x[440] 0
x[441] 1
x[442] 0
x[443] 1
x[444] 0
x[445] 0
x[446] 1
x[447] 1
x[448] 1
x[449] 0
x[450] 1
x[451] 1
x[452] 0
x[453] 0
x[454] 1
x[455] 0
x[456] 0
x[457] 1
x[458] 0
x[459] 0
x[460] 0
x[461] 0
x[462] 0
x[463] 1
x[464] 0
x[465] 1
x[466] 0
x[467] 1
x[468] 1
x[469] 1
x[470] 1
x[471] 1
x[472] 0
x[473] 1
x[474] 0
x[475] 0
x[476] 1
x[477] 0
x[478] 1
x[479] 0
x[480] 0
x[481] 0
x[482] 1
x[483] 1
x[484] 1
x[485] 0
x[486] 1
x[487] 0
x[488] 0
x[489] 1
x[490] 1
x[491] 1
x[492] 0
x[493] 0
x[494] 0
x[495] 0
x[496] 0
x[497] 1
x[498] 0
x[499] 0
x[500] 1
x[501] 0
x[502] 1
x[503] 0
x[504] 0
x[505] 1
x[506] 1
x[507] 0
x[508] 1
x[509] 1
x[510] 1
x[511] 0
x[512] 1
x[513] 0
x[514] 0
x[515] 0
x[516] 1
x[517] 1
x[518] 0
x[519] 1
x[520] 0
x[521] 0
x[522] 0
x[523] 1
x[524] 0
x[525] 0
x[526] 0
x[527] 0
x[528] 1
x[529] 0
x[530] 1
x[531] 1
x[532] 1
x[533] 1
x[534] 0
x[535] 1
x[536] 1
x[537] 1
x[538] 1
x[539] 0
x[540] 1
x[541] 0
x[542] 1
x[543] 0
x[544] 1
x[545] 1
x[546] 0
x[547] 1
x[548] 0
x[549] 1
x[550] 0
x[551] 1
x[552] 0
x[553] 0
x[554] 1
x[555] 0
x[556] 0
x[557] 1
x[558] 0
x[559] 0
x[560] 1
x[561] 1
x[562] 1
x[563] 1
x[564] 0
x[565] 0
x[566] 0
x[567] 0
x[568] 0
x[569] 1
x[570] 0
x[571] 1
x[572] 1
x[573] 1
x[574] 1
x[575] 0
x[576] 0
x[577] 0
x[578] 0
x[579] 0
x[580] 0
x[581] 0
x[582] 1
x[583] 1
x[584] 0
x[585] 0
x[586] 0
x[587] 1
x[588] 1
x[589] 1
x[590] 0
x[591] 1
x[592] 0
x[593] 1
x[594] 1
x[595] 1
x[596] 1
x[597] 0
x[598] 0
x[599] 1
x[600] 1
x[601] 0
x[602] 1
x[603] 0
x[604] 1
x[605] 0
x[606] 0
x[607] 0
x[608] 0
x[609] 0
x[610] 1
x[611] 0
x[612] 1
x[613] 1
x[614] 1
x[615] 1
x[616] 0
x[617] 0
x[618] 0
x[619] 0
x[620] 0
x[621] 0
x[622] 1
x[623] 0
x[624] 0
x[625] 0
x[626] 0
x[627] 1
x[628] 0
x[629] 1
x[630] 1
x[631] 0
x[632] 0
x[633] 0
x[634] 0
x[635] 1
x[636] 0
x[637] 0
x[638] 1
x[639] 0
x[640] 0
x[641] 1
x[642] 0
x[643] 0
x[644] 0
x[645] 0
x[646] 1
x[647] 0
x[648] 0
x[649] 1
x[650] 0
x[651] 1
x[652] 1
x[653] 1
x[654] 0
x[655] 1
x[656] 0
x[657] 1
x[658] 1
x[659] 1
x[660] 0
x[661] 1
x[662] 0
x[663] 1
x[664] 1
x[665] 0
x[666] 0
x[667] 0
x[668] 1
x[669] 1
x[670] 1
x[671] 1
x[672] 1
x[673] 0
x[674] 1
x[675] 0
x[676] 1
x[677] 1
x[678] 0
x[679] 1
x[680] 0
x[681] 0
x[682] 1
x[683] 0
x[684] 0
x[685] 1
x[686] 0
x[687] 0
x[688] 1
x[689] 1
x[690] 1
x[691] 1
x[692] 1
x[693] 1
x[694] 0
x[695] 1
x[696] 1
x[697] 0
x[698] 0
x[699] 1
x[700] 0
x[701] 0
x[702] 1
x[703] 0
x[704] 1
x[705] 1
x[706] 1
x[707] 0
x[708] 0
x[709] 1
x[710] 0
x[711] 1
x[712] 1
x[713] 0
x[714] 0
x[715] 1
x[716] 0
x[717] 1
x[718] 1
x[719] 0
x[720] 0
x[721] 1
x[722] 0
x[723] 1
x[724] 1
x[725] 1
x[726] 1
x[727] 0
x[728] 1
x[729] 1
x[730] 0
x[731] 1
x[732] 0
x[733] 1
x[734] 0
x[735] 1
x[736] 0
x[737] 0
x[738] 0
x[739] 0
x[740] 1
x[741] 0
x[742] 1
x[743] 1
x[744] 1
x[745] 1
x[746] 1
x[747] 0
x[748] 1
x[749] 0
x[750] 0
x[751] 0
x[752] 1
x[753] 1
x[754] 1
x[755] 1
x[756] 1
x[757] 1
x[758] 1
x[759] 1
x[760] 1
x[761] 1
x[762] 1
x[763] 0
x[764] 1
x[765] 0
x[766] 0
x[767] 0
x[768] 1
x[769] 0
x[770] 1
x[771] 0
x[772] 0
x[773] 1
x[774] 0
x[775] 0
x[776] 1
x[777] 0
x[778] 0
x[779] 1
x[780] 1
x[781] 1
x[782] 0
x[783] 1
x[784] 1
x[785] 1
x[786] 0
x[787] 1
x[788] 0
x[789] 1
x[790] 0
x[791] 1
x[792] 0
x[793] 1
x[794] 0
x[795] 0
x[796] 0
x[797] 1
x[798] 0
x[799] 1
x[800] 0
x[801] 0
x[802] 1
x[803] 0
x[804] 1
x[805] 1
x[806] 1
x[807] 0
x[808] 0
x[809] 0
x[810] 1
x[811] 0
x[812] 1
x[813] 1
x[814] 0
x[815] 0
x[816] 1
x[817] 1
x[818] 0
x[819] 1
x[820] 0
x[821] 1
x[822] 1
x[823] 0
x[824] 1
x[825] 1
x[826] 1
x[827] 1
x[828] 1
x[829] 0
x[830] 0
x[831] 1
x[832] 0
x[833] 1
x[834] 0
x[835] 1
x[836] 1
x[837] 1
x[838] 1
x[839] 0
x[840] 1
x[841] 0
x[842] 0
x[843] 1
x[844] 1
x[845] 1
x[846] 1
x[847] 1
x[848] 1
x[849] 0
x[850] 0
x[851] 1
x[852] 1
x[853] 0
x[854] 0
x[855] 1
x[856] 0
x[857] 1
x[858] 0
x[859] 1
x[860] 1
x[861] 1
x[862] 1
x[863] 0
x[864] 0
x[865] 1
x[866] 1
x[867] 0
x[868] 0
x[869] 0
x[870] 1
x[871] 1
x[872] 0
x[873] 0
x[874] 0
x[875] 1
x[876] 0
x[877] 1
x[878] 0
x[879] 0
x[880] 0
x[881] 1
x[882] 1
x[883] 1
x[884] 1
x[885] 0
x[886] 0
x[887] 1
x[888] 1
x[889] 1
x[890] 0
x[891] 1
x[892] 0
x[893] 1
x[894] 1
x[895] 1
x[896] 0
x[897] 1
x[898] 0
x[899] 0
x[900] 1
x[901] 0
x[902] 0
x[903] 1
x[904] 1
x[905] 1
x[906] 0
x[907] 0
x[908] 1
x[909] 0
x[910] 0
x[911] 0
x[912] 0
x[913] 0
x[914] 0
x[915] 1
x[916] 0
x[917] 0
x[918] 1
x[919] 1
x[920] 0
x[921] 0
x[922] 1
x[923] 1
x[924] 1
x[925] 0
x[926] 0
x[927] 0
x[928] 0
x[929] 0
x[930] 0
x[931] 0
x[932] 1
x[933] 0
x[934] 0
x[935] 0
x[936] 1
x[937] 0
x[938] 0
x[939] 0
x[940] 1
x[941] 0
x[942] 1
x[943] 1
x[944] 1
x[945] 0
x[946] 1
x[947] 1
x[948] 0
x[949] 0
x[950] 0
x[951] 0
x[952] 0
x[953] 0
x[954] 0
x[955] 0
x[956] 1
x[957] 0
x[958] 1
x[959] 0
x[960] 1
x[961] 0
x[962] 0
x[963] 1
x[964] 0
x[965] 1
x[966] 1
x[967] 1
x[968] 0
x[969] 0
x[970] 1
x[971] 0
x[972] 1
x[973] 0
x[974] 1
x[975] 0
x[976] 1
x[977] 1
x[978] 0
x[979] 1
x[980] 1
x[981] 0
x[982] 0
x[983] 1
x[984] 1
x[985] 0
x[986] 0
x[987] 1
x[988] 0
x[989] 0
x[990] 1
x[991] 0
x[992] 1
x[993] 1
x[994] 1
x[995] 1
x[996] 0
x[997] 0
x[998] 0
x[999] 1
